Ipopt 3.14.13: outlev = 0
expect_infeasible_problem = yes
bound_push = 0.01
bound_frac = 0.01
nlp_scaling_method = gradient-based


******************************************************************************
This program contains Ipopt, a library for large-scale nonlinear optimization.
 Ipopt is released as open source code under the Eclipse Public License (EPL).
         For more information visit https://github.com/coin-or/Ipopt
******************************************************************************

 
Ipopt 3.14.13: Optimal Solution Found

suffix ipopt_zU_out OUT;
suffix ipopt_zL_out OUT;
total_cost: 18369653.116475057 

*******************************************************************************
Gurobi 12.0.1: Set parameter LogToConsole to value 1
  tech:outlev = 1
Set parameter Presolve to value 1
  pre:solve = 1
Set parameter TimeLimit to value 3600
  lim:time = 3600
  alg:iisfind = 1
Set parameter NumericFocus to value 1
  alg:numericfocus = 1
  cvt:socp = 2
Set parameter Method to value 3
  alg:method = 3
Set parameter NodeMethod to value 1
  mip:nodemethod = 1
Set parameter ConcurrentMethod to value 3
  alg:concurrentmethod = 3
Set parameter NonConvex to value 2
  qp:nonconvex = 2
Set parameter VarBranch to value 0
  mip:varbranch = 0
Set parameter OBBT to value 1
  mip:obbt = 1
  alg:start = 1
  alg:basis = 1
Set parameter InfUnbdInfo to value 1
Gurobi Optimizer version 12.0.1 build v12.0.1rc0 (linux64 - "Debian GNU/Linux 12 (bookworm)")

CPU model: INTEL(R) XEON(R) GOLD 6530, instruction set [SSE2|AVX|AVX2|AVX512]
Thread count: 32 physical cores, 64 logical processors, using up to 32 threads

Non-default parameters:
TimeLimit  3600
Method  3
ConcurrentMethod  3
NodeMethod  1
OBBT  1
VarBranch  0
InfUnbdInfo  1
NonConvex  2
NumericFocus  1
Presolve  1

Optimize a model with 276 rows, 1699 columns and 1147 nonzeros
Model fingerprint: 0x163fd5f0
Model has 84 simple general constraints
  84 ABS
Model has 84 general nonlinear constraints (3528 nonlinear terms)
Variable types: 1699 continuous, 0 integer (0 binary)
Coefficient statistics:
  Matrix range     [3e-05, 7e+01]
  Objective range  [5e+01, 3e+02]
  Bounds range     [3e-05, 3e+05]
  RHS range        [1e+00, 2e+04]

User MIP start produced solution with objective 1.83697e+07 (0.00s)
Loaded user MIP start with objective 1.83697e+07

Presolve model has 84 nlconstr
Added 1932 variables to disaggregate expressions.
Presolve added 237 rows and 0 columns
Presolve removed 0 rows and 442 columns
Presolve time: 0.03s
Presolved: 5805 rows, 3190 columns, 14975 nonzeros
Presolved model has 168 SOS constraint(s)
Presolved model has 756 bilinear constraint(s)
Presolved model has 252 nonlinear constraint(s)

Solving non-convex MINLP

Variable types: 3022 continuous, 168 integer (168 binary)
Concurrent LP optimizer: primal and dual simplex
Showing primal log only...


Solved with dual simplex

Use crossover to convert LP symmetric solution to basic solution...

Root relaxation: objective 5.440540e+06, 2173 iterations, 0.25 seconds (0.04 work units)

    Nodes    |    Current Node    |     Objective Bounds      |     Work
 Expl Unexpl |  Obj  Depth IntInf | Incumbent    BestBd   Gap | It/Node Time

     0     0 5440540.10    0  517 1.8370e+07 5440540.10  70.4%     -    1s
     0     0 5440540.10    0  517 1.8370e+07 5440540.10  70.4%     -    1s
     0     0 5440540.10    0  555 1.8370e+07 5440540.10  70.4%     -    2s
     0     0 5440540.10    0  524 1.8370e+07 5440540.10  70.4%     -    2s
     0     0 5440540.10    0  524 1.8370e+07 5440540.10  70.4%     -    2s
     0     0 5440540.10    0  527 1.8370e+07 5440540.10  70.4%     -    2s
     0     0 5440540.10    0  523 1.8370e+07 5440540.10  70.4%     -    2s
     0     0 5440540.10    0  477 1.8370e+07 5440540.10  70.4%     -    3s
     0     0 5440540.10    0  495 1.8370e+07 5440540.10  70.4%     -    3s
     0     0 5440540.10    0  313 1.8370e+07 5440540.10  70.4%     -    4s
     0     0 5440540.10    0  472 1.8370e+07 5440540.10  70.4%     -    4s
     0     0 5440540.10    0  383 1.8370e+07 5440540.10  70.4%     -    5s
     0     0 5440540.10    0  558 1.8370e+07 5440540.10  70.4%     -    5s
     0     0 5440540.10    0  398 1.8370e+07 5440540.10  70.4%     -    6s
     0     0 6052125.11    0  416 1.8370e+07 6052125.11  67.1%     -   10s
     0     0 6427602.08    0  540 1.8370e+07 6427602.08  65.0%     -   12s
     0     0 6427602.08    0  544 1.8370e+07 6427602.08  65.0%     -   12s
     0     0 6427602.08    0  547 1.8370e+07 6427602.08  65.0%     -   12s
     0     0 6427602.08    0  543 1.8370e+07 6427602.08  65.0%     -   12s
     0     0 6427602.08    0  546 1.8370e+07 6427602.08  65.0%     -   12s
     0     0 6427602.08    0  546 1.8370e+07 6427602.08  65.0%     -   12s
     0     0 6473078.09    0  626 1.8370e+07 6473078.09  64.8%     -   13s
     0     0 6473078.09    0  631 1.8370e+07 6473078.09  64.8%     -   13s
     0     0 6473078.09    0  651 1.8370e+07 6473078.09  64.8%     -   13s
     0     0 6473078.09    0  650 1.8370e+07 6473078.09  64.8%     -   13s
     0     0 6473078.09    0  685 1.8370e+07 6473078.09  64.8%     -   13s
     0     0 6473078.09    0  685 1.8370e+07 6473078.09  64.8%     -   13s
     0     0 6473078.09    0  705 1.8370e+07 6473078.09  64.8%     -   13s
     0     0 6473297.14    0  564 1.8370e+07 6473297.14  64.8%     -   14s
     0     0 6491501.60    0  660 1.8370e+07 6491501.60  64.7%     -   15s
     0     0 6509039.57    0  668 1.8370e+07 6509039.57  64.6%     -   15s
     0     0 6519391.36    0  688 1.8370e+07 6519391.36  64.5%     -   16s
     0     0 6630159.12    0  674 1.8370e+07 6630159.12  63.9%     -   16s
     0     0 6630159.12    0  710 1.8370e+07 6630159.12  63.9%     -   17s
     0     0 6630159.12    0  700 1.8370e+07 6630159.12  63.9%     -   17s
     0     0 6630159.12    0  685 1.8370e+07 6630159.12  63.9%     -   17s
     0     0 6630159.12    0  719 1.8370e+07 6630159.12  63.9%     -   18s
     0     0 6630159.12    0  760 1.8370e+07 6630159.12  63.9%     -   18s
     0     0 6630159.12    0  756 1.8370e+07 6630159.12  63.9%     -   18s
     0     0 6630159.12    0  736 1.8370e+07 6630159.12  63.9%     -   19s
     0     0 6630159.12    0  727 1.8370e+07 6630159.12  63.9%     -   19s
     0     0 6630159.12    0  731 1.8370e+07 6630159.12  63.9%     -   19s
     0     0 6630159.12    0  694 1.8370e+07 6630159.12  63.9%     -   19s
     0     0 7037707.44    0  615 1.8370e+07 7037707.44  61.7%     -   26s
     0     0 7037707.44    0  507 1.8370e+07 7037707.44  61.7%     -   33s
     0     0 7037707.44    0  588 1.8370e+07 7037707.44  61.7%     -   34s
     0     0 7037707.44    0  590 1.8370e+07 7037707.44  61.7%     -   34s
     0     0 7037707.44    0  592 1.8370e+07 7037707.44  61.7%     -   34s
     0     0 7037707.44    0  628 1.8370e+07 7037707.44  61.7%     -   35s
     0     0 7037707.44    0  648 1.8370e+07 7037707.44  61.7%     -   35s
     0     0 7037707.44    0  658 1.8370e+07 7037707.44  61.7%     -   35s
     0     0 7037707.44    0  730 1.8370e+07 7037707.44  61.7%     -   36s
     0     0 7037707.44    0  766 1.8370e+07 7037707.44  61.7%     -   36s
     0     0 7058632.69    0  832 1.8370e+07 7058632.69  61.6%     -   37s
     0     0 7065338.35    0  841 1.8370e+07 7065338.35  61.5%     -   37s
     0     0 7065338.35    0  841 1.8370e+07 7065338.35  61.5%     -   37s
     0     0 7080040.31    0  844 1.8370e+07 7080040.31  61.5%     -   37s
     0     0 7101261.75    0  862 1.8370e+07 7101261.75  61.3%     -   37s
     0     0 7634005.19    0  874 1.8370e+07 7634005.19  58.4%     -   38s
     0     0 7731316.06    0  912 1.8370e+07 7731316.06  57.9%     -   38s
     0     0 7731316.06    0  893 1.8370e+07 7731316.06  57.9%     -   38s
     0     0 7731316.06    0  871 1.8370e+07 7731316.06  57.9%     -   38s
     0     0 7731316.06    0  898 1.8370e+07 7731316.06  57.9%     -   39s
     0     0 7731316.06    0  900 1.8370e+07 7731316.06  57.9%     -   39s
     0     0 7731316.06    0  920 1.8370e+07 7731316.06  57.9%     -   39s
     0     0 7731316.06    0  933 1.8370e+07 7731316.06  57.9%     -   40s
     0     0 7731316.06    0  913 1.8370e+07 7731316.06  57.9%     -   40s
     0     0 7731316.06    0  798 1.8370e+07 7731316.06  57.9%     -   51s
     0     0 7731316.06    0  506 1.8370e+07 7731316.06  57.9%     -   63s
     0     0 7731316.06    0  507 1.8370e+07 7731316.06  57.9%     -   64s
     0     0 7731316.06    0  509 1.8370e+07 7731316.06  57.9%     -   64s
     0     0 7731316.06    0  509 1.8370e+07 7731316.06  57.9%     -   64s
     0     0 7731316.06    0  626 1.8370e+07 7731316.06  57.9%     -   65s
     0     0 7731316.06    0  632 1.8370e+07 7731316.06  57.9%     -   66s
     0     0 7731316.06    0  632 1.8370e+07 7731316.06  57.9%     -   66s
     0     0 7731316.06    0  677 1.8370e+07 7731316.06  57.9%     -   67s
     0     0 7731316.06    0  734 1.8370e+07 7731316.06  57.9%     -   67s
     0     0 7731316.06    0  734 1.8370e+07 7731316.06  57.9%     -   67s
     0     0 7731316.06    0  744 1.8370e+07 7731316.06  57.9%     -   68s
     0     0 7731316.06    0  844 1.8370e+07 7731316.06  57.9%     -   69s
     0     0 7731316.06    0  853 1.8370e+07 7731316.06  57.9%     -   69s
     0     0 7731316.06    0  895 1.8370e+07 7731316.06  57.9%     -   70s
     0     0 7732469.58    0  894 1.8370e+07 7732469.58  57.9%     -   71s
     0     0 7746764.29    0  926 1.8370e+07 7746764.29  57.8%     -   71s
     0     0 7757318.42    0  911 1.8370e+07 7757318.42  57.8%     -   72s
     0     0 7762174.54    0  931 1.8370e+07 7762174.54  57.7%     -   72s
     0     0 7764215.34    0  928 1.8370e+07 7764215.34  57.7%     -   73s
     0     0 7782921.62    0  935 1.8370e+07 7782921.62  57.6%     -   73s
     0     0 7782921.62    0  934 1.8370e+07 7782921.62  57.6%     -   73s
     0     0 7782921.62    0  943 1.8370e+07 7782921.62  57.6%     -   74s
     0     0 7788966.96    0  942 1.8370e+07 7788966.96  57.6%     -   74s
     0     0 7788966.96    0  946 1.8370e+07 7788966.96  57.6%     -   74s
     0     0 7788966.96    0  826 1.8370e+07 7788966.96  57.6%     -   94s
     0     2 7788966.96    0  824 1.8370e+07 7788966.96  57.6%     -  122s
     7    16 1.0630e+07    3  672 1.8370e+07 9161762.30  50.1%  1256  125s
    63    90 1.2069e+07    6  759 1.8370e+07 1.0572e+07  42.4%   878  130s
   252   264 1.3533e+07   10  677 1.8370e+07 1.0628e+07  42.1%   531  135s
   663   584 1.5509e+07   15  589 1.8370e+07 1.0628e+07  42.1%   379  141s
   959   831 1.7385e+07   18  550 1.8370e+07 1.0628e+07  42.1%   361  145s
  1325  1088     cutoff   24      1.8370e+07 1.1000e+07  40.1%   339  151s
  1497  1202 1.1013e+07    8  752 1.8370e+07 1.1013e+07  40.0%   334  177s
  1786  1411 1.2924e+07   13  601 1.8370e+07 1.1013e+07  40.0%   327  180s
  1900  1494 1.6245e+07   16  455 1.8370e+07 1.1013e+07  40.0%   324  205s
  2146  1645 1.4068e+07   17  508 1.8370e+07 1.1013e+07  40.0%   317  214s
  2286  1717 1.4270e+07   19  552 1.8370e+07 1.1013e+07  40.0%   312  224s
  2420  1802 1.5745e+07   21  560 1.8370e+07 1.1013e+07  40.0%   308  228s
  2732  2035 1.5445e+07   23  552 1.8370e+07 1.1013e+07  40.0%   299  230s
  3218  2357 infeasible   27      1.8370e+07 1.1099e+07  39.6%   295  236s
  3592  2623 1.7661e+07   33  576 1.8370e+07 1.1099e+07  39.6%   290  241s
  3788  2625 1.4777e+07   26   81 1.8370e+07 1.1099e+07  39.6%   288  247s
  3789  2625 1.5581e+07   21    0 1.8370e+07 1.1099e+07  39.6%   288  263s
  3793  2628 1.6516e+07   19    0 1.8370e+07 1.1099e+07  39.6%   288  266s
  3811  2643 1.1099e+07   15  539 1.8370e+07 1.1099e+07  39.6%   288  270s
  3823  2655 1.1872e+07   16  501 1.8370e+07 1.1099e+07  39.6%   288  283s
  3843  2680 1.3351e+07   17  460 1.8370e+07 1.1099e+07  39.6%   288  331s
  4094  2848 1.1099e+07   22  534 1.8370e+07 1.1099e+07  39.6%   283  336s
  4232  2912 1.1099e+07   24  529 1.8370e+07 1.1099e+07  39.6%   282  342s
  4294  2938 1.1099e+07   24  531 1.8370e+07 1.1099e+07  39.6%   282  357s
  4423  3016 1.1099e+07   25  530 1.8370e+07 1.1099e+07  39.6%   283  361s
  4563  3091 infeasible   26      1.8370e+07 1.1099e+07  39.6%   284  365s
  4802  3206 1.1099e+07   30  537 1.8370e+07 1.1099e+07  39.6%   282  377s
  4975  3297 1.1099e+07   32  542 1.8370e+07 1.1099e+07  39.6%   280  382s
  5163  3398 1.1099e+07   34  543 1.8370e+07 1.1099e+07  39.6%   281  385s
  5494  3576 1.2298e+07   38  540 1.8370e+07 1.1099e+07  39.6%   279  390s
  5923  3776 1.2385e+07   41  542 1.8370e+07 1.1099e+07  39.6%   272  395s
  6548  4019 1.4596e+07   47  557 1.8370e+07 1.1099e+07  39.6%   264  400s
  7550  4317     cutoff   58      1.8370e+07 1.1099e+07  39.6%   254  406s
  7974  4488 1.1107e+07   30  514 1.8370e+07 1.1099e+07  39.6%   253  410s
  8911  4918 1.4492e+07   34  527 1.8370e+07 1.1099e+07  39.6%   249  426s
